S  O 
 1.0000000000000000
    10.0000000000000000    0.0000000000000000    0.0000000000000000
     0.0000000000000000   10.0000000000000000    0.0000000000000000
     0.0000000000000000    0.0000000000000000   10.0000000000000000
 S   O  
   1   2
Cartesian
  4.9383410789408719  4.5811994291236298  5.0000000000000000
  6.2509432753830163  5.2109600127768276  5.0000000000000000
  3.7488551927899452  5.4204135530514943  5.0000000000000000
