Ti C 
1.0
        3.0813963413         0.0000000000         0.0000000000
       -1.5406981707         2.6685675107         0.0000000000
        0.0000000000         0.0000000000         4.8137698174
   Ti    C
    2    1
Cartesian
     0.000000000         0.000000000         3.575947384
     1.540698217         0.889522530         1.237822290
     0.000000000         1.779045060         2.406884909
