Ti C 
 1.0000000000000000
     3.0813963413000001    0.0000000000000000    0.0000000000000000
    -1.5406981707000000    2.6685675107000000    0.0000000000000000
     0.0000000000000000    0.0000000000000000   14.4413099289000009
 Ti  C  
   6   3
Cartesian
  0.0000000000000000  0.0000000000000000  3.5487951499468915
 -0.0000000000000000 -0.0000000000000000 10.8925147790531103
  1.5406982170000001  0.8895225300000000  8.3625561762576179
  1.5406982170000001  0.8895225300000000  1.2649881550793574
  0.0000000000000000  1.7790450600000001 13.1763220969206412
 -0.0000000000000000  1.7790450600000001  6.0787533227423847
 -0.0000000000000000  0.0000000000000000  7.2206549640000004
  1.5406982170000001  0.8895225300000000 12.0344262589048796
  0.0000000000000000  1.7790450600000001  2.4068834550951199
