N  O 
 1.0000000000000000
    10.0000000000000000    0.0000000000000000    0.0000000000000000
     0.0000000000000000   10.0000000000000000    0.0000000000000000
     0.0000000000000000    0.0000000000000000   10.0000000000000000
 N   O  
   1   2
Cartesian
  4.5882536752575085  5.2333318610263122  5.0000000000000000
  5.5467462314479681  5.9630520405984262  5.0000000000000000
  4.4548380615362220  4.0359803997948340  5.0000000000000000
