Ti6 C3
1.0
        3.0813963413         0.0000000000         0.0000000000
       -1.5406981707         2.6685675107         0.0000000000
        0.0000000000         0.0000000000        14.4413099289
   Ti    C
    6    3
Cartesian
     0.000000000         0.000000000         3.545310145
     0.000000000         0.000000000        10.895999784
     1.540698217         0.889522530         8.359079835
     1.540698217         0.889522530         1.268459867
     0.000000000         1.779045060        13.172850385
     0.000000000         1.779045060         6.082229664
     0.000000000         0.000000000         7.220654964
     1.540698217         0.889522530        12.034424654
     0.000000000         1.779045060         2.406885060
