Ti C 
 1.0000000000000000
     3.0813963619462039    0.0000000000000000    0.0000000000000000
     0.0000000000000000    3.0813963619462039    0.0000000000000000
     0.0000000000000000    0.0000000000000000   10.0000000000000000
 Ti  C  
   2   1
Cartesian
  0.0000000000000000 -0.0000000000000000  3.5759475278536459
  1.5406981809731009 -0.8895225095247867  1.2378223247721167
  1.5406981809731004  0.8895225095247863  2.4068849263128942
