Ti C  Ti C  Ti C  Ti C  N  O 
 1.0000000000000000
     3.0813963619462044   -5.3371350571487222    0.0000000000000000
     3.0813963619462044    5.3371350571487222    0.0000000000000000
     0.0000000000000000    0.0000000000000000    4.8137698526257893
 Ti  C   Ti  C   Ti  C   Ti  C   N   O  
   2   1   2   1   2   1   2   1   1   2
Cartesian
  0.0918878443743566  0.0901844587635643  3.4562742962290089
  1.6131188392964841 -0.7797803119371730  1.1277158602683295
  1.6327006546235316  1.0005244400743043  2.2989835859291183
  1.6514493064954070  2.7812230405531913  3.4697136601438996
  3.1731295621127482  1.9115227801895371  1.1409886186958214
  3.1730073801737153  3.6691135599138804  2.2990905394040904
  1.6138700801541008 -2.5558249156631292  3.4691105608524655
  3.1732959145814879 -3.4615194551238888  1.1671251242691310
  3.1732740197198512 -1.6679611203395814  2.2986798845058329
  3.1734428490081301  0.1255654451571301  3.4298609366083683
  4.7332293531974390 -0.7800993275454373  1.1276619564831445
  4.7135593815361441  1.0005216226285951  2.2989034508249966
  3.1731985887576206  3.6686918258610124  9.5192984261626723
  4.7145736116965180  1.0007764109859707  9.5196938229480068
  1.6320911847528707  1.0006850846487783  9.5196414548146642
