Ti C  Ti C  Ti C  Ti C  O 
 1.0000000000000000
     3.0813963619462044   -5.3371350571487222    0.0000000000000000
     3.0813963619462044    5.3371350571487222    0.0000000000000000
     0.0000000000000000    0.0000000000000000    4.8137698526257893
 Ti  C   Ti  C   Ti  C   Ti  C   O  
   2   1   2   1   2   1   2   2   2
Cartesian
  0.1953652413982459  0.2101834832433620  3.3850717149808407
  1.7356493640350752 -0.7228815450922325  1.1630625367731304
  1.7349142938926452  1.0266846520382054  2.2400466744409404
  1.7356773797389589  2.7212191184166565  3.3041908587443762
  3.2347985856832810  1.8694658421224244  1.0065917114490091
  3.2669343410146676  3.7441759198664055  2.3618061267852570
  1.7347579329978617 -2.5575149915796955  3.2692928340225276
  3.3162636821001921 -3.4681566215215485  1.0068105991885978
  3.2847260332387607 -1.5937904837958470  2.3628796904546880
  3.2748891927854586  0.2100835753975675  3.3854522041258246
  4.8160403729396508 -0.6631323750021856  1.2054719608480389
  4.8161830242178487  1.0744882497890360  2.2436982907802272
  1.7352581692505034  0.7758263588555362  9.4116374718508435
  4.8162197676798000  2.9352378901269454  9.8926098313724555
  1.7328943659719853  3.0934254164603114  9.8962628057922810
