S  O 
 1.0000000000000000
    10.0000000000000000    0.0000000000000000    0.0000000000000000
     0.0000000000000000   10.0000000000000000    0.0000000000000000
     0.0000000000000000    0.0000000000000000   10.0000000000000000
 S   O  
   1   2
Cartesian
  4.9387800422516506  4.5813774005147696  5.0000000000000000
  6.2513179072420781  5.2116639670989393  5.0000000000000000
  3.7482437856226443  5.4194751013181559  5.0000000000000000
