N  O 
 1.0000000000000000
    10.0000000000000000    0.0000000000000000    0.0000000000000000
     0.0000000000000000   10.0000000000000000    0.0000000000000000
     0.0000000000000000    0.0000000000000000   10.0000000000000000
 N   O  
   1   2
Cartesian
  4.5852317027740011  5.2350212434347787  5.0000000000000000
  5.5485866486760012  5.9634111463081645  5.0000000000000000
  4.4555327448776909  4.0342664973343760  5.0000000000000000
