N  O 
 1.0000000000000000
    10.0000000000000000    0.0000000000000000    0.0000000000000000
     0.0000000000000000   10.0000000000000000    0.0000000000000000
     0.0000000000000000    0.0000000000000000   10.0000000000000000
 N   O  
   1   2
Cartesian
  4.5882536753522256  5.2333318609714672  5.0000000000000000
  5.5467462311354812  5.9630520406702745  5.0000000000000000
  4.4548380613296423  4.0359804000463830  5.0000000000000000
