C  O 
 1.0000000000000000
    10.0000000000000000    0.0000000000000000    0.0000000000000000
     0.0000000000000000   10.0000000000000000    0.0000000000000000
     0.0000000000000000    0.0000000000000000   10.0000000000000000
 C   O  
   1   2
Cartesian
  5.0000000000000000  5.0000000000000000  5.0000000000000000
  6.0246981832783773  5.5693686503062132  5.0000000000000000
  3.9753018167216227  4.4306313496937868  5.0000000000000000
