C  O 
 1.0000000000000000
    10.0000000000000000    0.0000000000000000    0.0000000000000000
     0.0000000000000000   10.0000000000000000    0.0000000000000000
     0.0000000000000000    0.0000000000000000   10.0000000000000000
 C   O  
   1   2
Cartesian
  5.0000000000000000  5.0000000000000000  5.0000000000000000
  6.0246873886909356  5.5693661643118082  5.0000000000000000
  3.9753126113090644  4.4306338356881918  5.0000000000000000
