S  O 
 1.0000000000000000
    10.0000000000000000    0.0000000000000000    0.0000000000000000
     0.0000000000000000   10.0000000000000000    0.0000000000000000
     0.0000000000000000    0.0000000000000000   10.0000000000000000
 S   O  
   1   2
Cartesian
  4.9383410789408568  4.5811994291234885  5.0000000000000000
  6.2509432753828493  5.2109600127768587  5.0000000000000000
  3.7488551927901184  5.4204135530515609  5.0000000000000000
