N  O 
 1.0000000000000000
    10.0000000000000000    0.0000000000000000    0.0000000000000000
     0.0000000000000000   10.0000000000000000    0.0000000000000000
     0.0000000000000000    0.0000000000000000   10.0000000000000000
 N   O  
   1   2
Cartesian
  4.5882516849886956  5.2334703589139719  5.0000000000000000
  5.5466246884507999  5.9630343029371504  5.0000000000000000
  4.4547920183982157  4.0360153092842159  5.0000000000000000
