C  O 
 1.0000000000000000
    10.0000000000000000    0.0000000000000000    0.0000000000000000
     0.0000000000000000   10.0000000000000000    0.0000000000000000
     0.0000000000000000    0.0000000000000000   10.0000000000000000
 C   O  
   1   2
Cartesian
  5.0000000000000000  5.0000000000000000  5.0000000000000000
  6.0247859126284755  5.5693702564490524  5.0000000000000000
  3.9752140873715254  4.4306297435509476  5.0000000000000000
