Ti C  Ti C  Ti C  Ti C  N  O 
 1.0000000000000000
     3.0813963619462044   -5.3371350571487222    0.0000000000000000
     3.0813963619462044    5.3371350571487222    0.0000000000000000
     0.0000000000000000    0.0000000000000000    4.8137698526257893
 Ti  C   Ti  C   Ti  C   Ti  C   N   O  
   2   1   2   1   2   1   2   1   1   2
Cartesian
  0.0000000000000000  0.0000000000000000  3.5759475278536459
  1.5406981809731009 -0.8895225095247867  1.2378223247721167
  1.5406981809731004  0.8895225095247863  2.4068849263128942
  1.5406981809731022  2.6685675285743611  3.5759475278536459
  3.0813963619462030  1.7790450190495743  1.2378223247721167
  3.0813963619462026  3.5580900380991474  2.4068849263128942
  1.5406981809731022 -2.6685675285743611  3.5759475278536459
  3.0813963619462030 -3.5580900380991478  1.2378223247721167
  3.0813963619462026 -1.7790450190495748  2.4068849263128942
  3.0813963619462044  0.0000000000000000  3.5759475278536459
  4.6220945429193048 -0.8895225095247867  1.2378223247721167
  4.6220945429193048  0.8895225095247863  2.4068849263128942
  2.7703490904865511  3.3342837642871803  9.0759475278536463
  2.7703490904865511  4.2061468941906046  8.2445000371728092
  2.7703490904865511  2.4624959414689238  8.2445718533614336
