Ti C  Ti C  Ti C  Ti C  Ti C  Ti C  Ti C  Ti C  Ti C  S  O 
 1.0000000000000000
     4.6220945429193065   -8.0057025857230837    0.0000000000000000
     4.6220945429193065    8.0057025857230837    0.0000000000000000
     0.0000000000000000    0.0000000000000000    4.8137698526257893
 Ti  C   Ti  C   Ti  C   Ti  C   Ti  C   Ti  C   Ti  C   Ti  C   Ti  C   S   O  
   2   1   2   1   2   1   2   1   2   1   2   1   2   1   2   1   2   1   1   2
Cartesian
  0.0000000000000000  0.0000000000000000  3.5759475278536459
  1.5406981809731009 -0.8895225095247867  1.2378223247721167
  1.5406981809731004  0.8895225095247863  2.4068849263128942
  1.5406981809731022  2.6685675285743611  3.5759475278536459
  3.0813963619462030  1.7790450190495743  1.2378223247721167
  3.0813963619462026  3.5580900380991474  2.4068849263128942
  3.0813963619462044  5.3371350571487222  3.5759475278536459
  4.6220945429193048  4.4476125476239350  1.2378223247721167
  4.6220945429193048  6.2266575666735084  2.4068849263128942
  1.5406981809731022 -2.6685675285743611  3.5759475278536459
  3.0813963619462030 -3.5580900380991478  1.2378223247721167
  3.0813963619462026 -1.7790450190495748  2.4068849263128942
  3.0813963619462044  0.0000000000000000  3.5759475278536459
  4.6220945429193048 -0.8895225095247867  1.2378223247721167
  4.6220945429193048  0.8895225095247863  2.4068849263128942
  4.6220945429193065  2.6685675285743611  3.5759475278536459
  6.1627927238924070  1.7790450190495743  1.2378223247721167
  6.1627927238924070  3.5580900380991474  2.4068849263128942
  3.0813963619462044 -5.3371350571487222  3.5759475278536459
  4.6220945429193048 -6.2266575666735093  1.2378223247721167
  4.6220945429193048 -4.4476125476239359  2.4068849263128942
  4.6220945429193065 -2.6685675285743611  3.5759475278536459
  6.1627927238924070 -3.5580900380991478  1.2378223247721167
  6.1627927238924070 -1.7790450190495748  2.4068849263128942
  6.1627927238924087  0.0000000000000000  3.5759475278536459
  7.7034909048655091 -0.8895225095247867  1.2378223247721167
  7.7034909048655091  0.8895225095247863  2.4068849263128942
 -0.4593018190268996 -1.1104774904752137  5.5759475278536463
 -1.1687238314735278 -1.1104774904752137  4.3047758528198035
 -1.1687850742408181 -1.1104774904752137  6.8472289402084554
