Ti C  Ti C  Ti C  Ti C  S  O 
 1.0000000000000000
     3.0813963619462044   -5.3371350571487222    0.0000000000000000
     3.0813963619462044    5.3371350571487222    0.0000000000000000
     0.0000000000000000    0.0000000000000000    4.8137698526257893
 Ti  C   Ti  C   Ti  C   Ti  C   S   O  
   2   1   2   1   2   1   2   1   1   2
Cartesian
  0.0000000000000000  0.0000000000000000  3.5686115653925503
  1.5406994839955341 -0.8895232618251392  1.2451574715557416
  1.5406981832049795  0.8895225108133622  2.4068849080300581
  1.5406968835856827  2.6685682776213362  3.5686125438602985
  3.0813963619462030  1.7790450190495743  1.2451584409771403
  3.0813963619462026  3.5580900355219947  2.4068849080300581
  1.5406994783605217 -2.6685667795273860  3.5686125438602985
  3.0813963619462030 -3.5580885334984429  1.2451574715557416
  3.0813963619462026 -1.7790450190495748  2.4068849071345237
  3.0813963619462044 -0.0000014980939518  3.5686125438602985
  4.6220932398968726 -0.8895232618251392  1.2451574715557416
  4.6220945406874261  0.8895225108133622  2.4068849080300581
  3.5406981832049795  2.8895225108133622  9.0686115653925512
  4.2511119754994606  4.1603870111271846  9.0686115653925512
  4.2511509286081672  1.6185883269945607  9.0686115653925512
