Ti C  Ti C  Ti C  Ti C  O 
 1.0000000000000000
     3.0813963619462044   -5.3371350571487222    0.0000000000000000
     3.0813963619462044    5.3371350571487222    0.0000000000000000
     0.0000000000000000    0.0000000000000000    4.8137698526257893
 Ti  C   Ti  C   Ti  C   Ti  C   O  
   2   1   2   1   2   1   2   2   2
Cartesian
  0.0000000000000000  0.0000000000000000  3.5867781338375853
  1.5406981855914301 -0.8895225121911803  1.2269910277903755
  1.5406981911508224  0.8895225154008969  2.4068862744810864
  1.5406981778934887  2.6685675303523770  3.5867781282501854
  3.0813963619462030  1.7790450190495743  1.2269910354946769
  3.0813963619462026  3.5580900263469255  2.4068862744810864
  1.5406981840527156 -2.6685675267963451  3.5867781282501854
  3.0813963619462030 -3.5580900327663612  1.2269910277903755
  3.0813963619462026 -1.7790450190495748  2.4068862764970347
  3.0813963619462044 -0.0000000035560314  3.5867781282501854
  4.6220945383009759 -0.8895225121911803  1.2269910277903755
  4.6220945327415830  0.8895225154008969  2.4068862744810864
  3.5406981911508222  2.8895225154008970  9.0867781338375853
  3.5406981911508222  2.8895225154008970  7.9144434309260667
  3.5406981911508222  2.8895225154008970 10.2591128367491038
